n_machines = 10;
n_resources = 17;
n_jobs = 83;
horizon = 441;
LB = 44;
n_jobs_per_resource = [6, 1, 8, 1, 2, 9, 4, 9, 4, 2, 3, 5, 7, 1, 8, 8, 5];
duration = [7, 8, 7, 4, 6, 9, 8, 6, 1, 7, 5, 5, 6, 8, 1, 7, 6, 9, 2, 3, 3, 2, 8, 8, 7, 8, 2, 8, 9, 6, 2, 5, 9, 6, 1, 8, 3, 4, 5, 1, 2, 1, 7, 4, 5, 6, 4, 7, 4, 8, 6, 3, 6, 8, 8, 8, 6, 4, 1, 7, 8, 3, 6, 8, 3, 2, 4, 1, 7, 7, 8, 1, 9, 6, 2, 5, 3, 7, 2, 7, 7, 9, 1]